; benchmark generated from python API
(set-info :status unknown)
(declare-fun x_months () Int)
(declare-fun x_beta () Int)
(assert
 (<= (- 1200) x_months))
(assert
 (>= 1199 x_months))
(assert
 (let ((?x4370 (mod x_months 48)))
 (let ((?x211 ((as const (Array Int Int)) 0)))
 (let ((?x213 (store ?x211 0 31)))
 (let ((?x216 (store ?x213 1 30)))
 (let ((?x218 (store ?x216 2 31)))
 (let ((?x220 (store ?x218 3 30)))
 (let ((?x222 (store ?x220 4 31)))
 (let ((?x224 (store ?x222 5 31)))
 (let ((?x226 (store ?x224 6 30)))
 (let ((?x228 (store ?x226 7 31)))
 (let ((?x230 (store ?x228 8 30)))
 (let ((?x232 (store ?x230 9 31)))
 (let ((?x234 (store ?x232 10 31)))
 (let ((?x237 (store ?x234 11 28)))
 (let ((?x239 (store ?x237 12 31)))
 (let ((?x241 (store ?x239 13 30)))
 (let ((?x243 (store ?x241 14 31)))
 (let ((?x245 (store ?x243 15 30)))
 (let ((?x247 (store ?x245 16 31)))
 (let ((?x249 (store ?x247 17 31)))
 (let ((?x251 (store ?x249 18 30)))
 (let ((?x253 (store ?x251 19 31)))
 (let ((?x255 (store ?x253 20 30)))
 (let ((?x257 (store ?x255 21 31)))
 (let ((?x259 (store ?x257 22 31)))
 (let ((?x261 (store ?x259 23 28)))
 (let ((?x263 (store ?x261 24 31)))
 (let ((?x265 (store ?x263 25 30)))
 (let ((?x267 (store ?x265 26 31)))
 (let ((?x269 (store ?x267 27 30)))
 (let ((?x270 (store ?x269 28 31)))
 (let ((?x272 (store ?x270 29 31)))
 (let ((?x273 (store ?x272 30 30)))
 (let ((?x274 (store ?x273 31 31)))
 (let ((?x276 (store ?x274 32 30)))
 (let ((?x278 (store ?x276 33 31)))
 (let ((?x280 (store ?x278 34 31)))
 (let ((?x282 (store ?x280 35 28)))
 (let ((?x284 (store ?x282 36 31)))
 (let ((?x286 (store ?x284 37 30)))
 (let ((?x288 (store ?x286 38 31)))
 (let ((?x290 (store ?x288 39 30)))
 (let ((?x292 (store ?x290 40 31)))
 (let ((?x294 (store ?x292 41 31)))
 (let ((?x296 (store ?x294 42 30)))
 (let ((?x298 (store ?x296 43 31)))
 (let ((?x300 (store ?x298 44 30)))
 (let ((?x302 (store ?x300 45 31)))
 (let ((?x304 (store ?x302 46 31)))
 (let ((?x306 (store ?x304 47 29)))
 (let ((?x5719 (select ?x306 ?x4370)))
 (let ((?x5242 (ite (or (= 22802 (+ x_months 24003)) (= 25202 (+ x_months 24003))) 28 ?x5719)))
 (let (($x4965 (<= 0 x_beta)))
 (and $x4965 (< x_beta ?x5242))))))))))))))))))))))))))))))))))))))))))))))))))))))))
(assert
 (let (($x4965 (<= 0 x_beta)))
 (let ((?x5778 (- (+ (* 2023 12) 1) 24003)))
 (let (($x5226 (= x_months ?x5778)))
 (or (> x_months ?x5778) (and $x5226 $x4965))))))
(assert
 (let ((?x5778 (- (+ (* 2023 12) 1) 24003)))
 (let (($x5226 (= x_months ?x5778)))
 (or (< x_months ?x5778) (and $x5226 (>= 30 x_beta))))))
(assert
 (let ((?x6224 (+ x_months 0)))
(let ((?x6336 (mod ?x6224 48)))
(let ((?x6781 (ite (> 22803 (+ ?x6224 24003)) 1 (ite (<= 25203 (+ ?x6224 24003)) (- 1) 0))))
(let ((?x211 ((as const (Array Int Int)) 0)))
(let ((?x213 (store ?x211 0 31)))
(let ((?x216 (store ?x213 1 30)))
(let ((?x218 (store ?x216 2 31)))
(let ((?x220 (store ?x218 3 30)))
(let ((?x222 (store ?x220 4 31)))
(let ((?x224 (store ?x222 5 31)))
(let ((?x226 (store ?x224 6 30)))
(let ((?x228 (store ?x226 7 31)))
(let ((?x230 (store ?x228 8 30)))
(let ((?x232 (store ?x230 9 31)))
(let ((?x234 (store ?x232 10 31)))
(let ((?x237 (store ?x234 11 28)))
(let ((?x239 (store ?x237 12 31)))
(let ((?x241 (store ?x239 13 30)))
(let ((?x243 (store ?x241 14 31)))
(let ((?x245 (store ?x243 15 30)))
(let ((?x247 (store ?x245 16 31)))
(let ((?x249 (store ?x247 17 31)))
(let ((?x251 (store ?x249 18 30)))
(let ((?x253 (store ?x251 19 31)))
(let ((?x255 (store ?x253 20 30)))
(let ((?x257 (store ?x255 21 31)))
(let ((?x259 (store ?x257 22 31)))
(let ((?x261 (store ?x259 23 28)))
(let ((?x263 (store ?x261 24 31)))
(let ((?x265 (store ?x263 25 30)))
(let ((?x267 (store ?x265 26 31)))
(let ((?x269 (store ?x267 27 30)))
(let ((?x270 (store ?x269 28 31)))
(let ((?x272 (store ?x270 29 31)))
(let ((?x273 (store ?x272 30 30)))
(let ((?x274 (store ?x273 31 31)))
(let ((?x276 (store ?x274 32 30)))
(let ((?x278 (store ?x276 33 31)))
(let ((?x280 (store ?x278 34 31)))
(let ((?x282 (store ?x280 35 28)))
(let ((?x284 (store ?x282 36 31)))
(let ((?x286 (store ?x284 37 30)))
(let ((?x288 (store ?x286 38 31)))
(let ((?x290 (store ?x288 39 30)))
(let ((?x292 (store ?x290 40 31)))
(let ((?x294 (store ?x292 41 31)))
(let ((?x296 (store ?x294 42 30)))
(let ((?x298 (store ?x296 43 31)))
(let ((?x300 (store ?x298 44 30)))
(let ((?x302 (store ?x300 45 31)))
(let ((?x304 (store ?x302 46 31)))
(let ((?x306 (store ?x304 47 29)))
(let ((?x6454 (ite (or (= 22802 (+ ?x6224 24003)) (= 25202 (+ ?x6224 24003))) 28 (select ?x306 ?x6336))))
(let ((?x6438 (- ?x6454 1)))
(let (($x4539 (> 0 x_beta)))
(let ((?x312 (store (store (store (store ?x211 0 0) 1 31) 2 61) 3 92)))
(let ((?x320 (store (store (store (store ?x312 4 122) 5 153) 6 184) 7 214)))
(let ((?x328 (store (store (store (store ?x320 8 245) 9 275) 10 306) 11 337)))
(let ((?x336 (store (store (store (store ?x328 12 365) 13 396) 14 426) 15 457)))
(let ((?x344 (store (store (store (store ?x336 16 487) 17 518) 18 549) 19 579)))
(let ((?x352 (store (store (store (store ?x344 20 610) 21 640) 22 671) 23 702)))
(let ((?x360 (store (store (store (store ?x352 24 730) 25 761) 26 791) 27 822)))
(let ((?x368 (store (store (store (store ?x360 28 852) 29 883) 30 914) 31 944)))
(let ((?x376 (store (store (store (store ?x368 32 975) 33 1005) 34 1036) 35 1067)))
(let ((?x384 (store (store (store (store ?x376 36 1095) 37 1126) 38 1156) 39 1187)))
(let ((?x392 (store (store (store (store ?x384 40 1217) 41 1248) 42 1279) 43 1309)))
(let ((?x400 (store (store (store (store ?x392 44 1340) 45 1370) 46 1401) 47 1432)))
(let ((?x6866 (+ (select ?x400 ?x6336) (ite $x4539 0 (ite (> x_beta ?x6438) ?x6438 x_beta)))))
(let ((?x6773 (+ (+ ?x6866 ?x6781) 30)))
(let ((?x5728 (+ ?x6224 (* (div ?x6773 1461) 48))))
(let ((?x3754 (+ (+ ?x5728 (- 1 ?x6336)) 24003)))
(let ((?x5068 (select ?x400 1)))
(let ((?x6757 (mod ?x6773 1461)))
(let (($x6005 (>= ?x6757 (+ ?x5068 (ite (> 22803 ?x3754) 1 (ite (<= 25203 ?x3754) (- 1) 0))))))
(let ((?x5258 (ite (> 22803 (+ (+ ?x5728 (- 2 ?x6336)) 24003)) 1 (ite (<= 25203 (+ (+ ?x5728 (- 2 ?x6336)) 24003)) (- 1) 0))))
(let ((?x4364 (select ?x400 2)))
(let ((?x6827 (ite (> 22803 (+ (+ ?x5728 (- 3 ?x6336)) 24003)) 1 (ite (<= 25203 (+ (+ ?x5728 (- 3 ?x6336)) 24003)) (- 1) 0))))
(let ((?x4449 (select ?x400 3)))
(let ((?x6189 (ite (>= ?x6757 (+ ?x4449 ?x6827)) 3 (ite (>= ?x6757 (+ ?x4364 ?x5258)) 2 (ite $x6005 1 0)))))
(let ((?x6622 (ite (> 22803 (+ (+ ?x5728 (- 4 ?x6336)) 24003)) 1 (ite (<= 25203 (+ (+ ?x5728 (- 4 ?x6336)) 24003)) (- 1) 0))))
(let ((?x4404 (select ?x400 4)))
(let ((?x6253 (ite (> 22803 (+ (+ ?x5728 (- 5 ?x6336)) 24003)) 1 (ite (<= 25203 (+ (+ ?x5728 (- 5 ?x6336)) 24003)) (- 1) 0))))
(let ((?x2121 (select ?x400 5)))
(let ((?x4834 (ite (>= ?x6757 (+ ?x2121 ?x6253)) 5 (ite (>= ?x6757 (+ ?x4404 ?x6622)) 4 ?x6189))))
(let ((?x6301 (ite (> 22803 (+ (+ ?x5728 (- 6 ?x6336)) 24003)) 1 (ite (<= 25203 (+ (+ ?x5728 (- 6 ?x6336)) 24003)) (- 1) 0))))
(let ((?x4427 (select ?x400 6)))
(let ((?x4608 (ite (> 22803 (+ (+ ?x5728 (- 7 ?x6336)) 24003)) 1 (ite (<= 25203 (+ (+ ?x5728 (- 7 ?x6336)) 24003)) (- 1) 0))))
(let ((?x6017 (select ?x400 7)))
(let ((?x2566 (ite (>= ?x6757 (+ ?x6017 ?x4608)) 7 (ite (>= ?x6757 (+ ?x4427 ?x6301)) 6 ?x4834))))
(let ((?x6864 (ite (> 22803 (+ (+ ?x5728 (- 8 ?x6336)) 24003)) 1 (ite (<= 25203 (+ (+ ?x5728 (- 8 ?x6336)) 24003)) (- 1) 0))))
(let ((?x455 (select ?x400 8)))
(let ((?x6466 (ite (> 22803 (+ (+ ?x5728 (- 9 ?x6336)) 24003)) 1 (ite (<= 25203 (+ (+ ?x5728 (- 9 ?x6336)) 24003)) (- 1) 0))))
(let ((?x5270 (select ?x400 9)))
(let ((?x6421 (ite (>= ?x6757 (+ ?x5270 ?x6466)) 9 (ite (>= ?x6757 (+ ?x455 ?x6864)) 8 ?x2566))))
(let ((?x6850 (ite (> 22803 (+ (+ ?x5728 (- 10 ?x6336)) 24003)) 1 (ite (<= 25203 (+ (+ ?x5728 (- 10 ?x6336)) 24003)) (- 1) 0))))
(let ((?x2850 (select ?x400 10)))
(let ((?x6475 (ite (> 22803 (+ (+ ?x5728 (- 11 ?x6336)) 24003)) 1 (ite (<= 25203 (+ (+ ?x5728 (- 11 ?x6336)) 24003)) (- 1) 0))))
(let ((?x5284 (select ?x400 11)))
(let ((?x4533 (ite (>= ?x6757 (+ ?x5284 ?x6475)) 11 (ite (>= ?x6757 (+ ?x2850 ?x6850)) 10 ?x6421))))
(let ((?x4799 (ite (> 22803 (+ (+ ?x5728 (- 12 ?x6336)) 24003)) 1 (ite (<= 25203 (+ (+ ?x5728 (- 12 ?x6336)) 24003)) (- 1) 0))))
(let ((?x1745 (select ?x400 12)))
(let ((?x979 (ite (> 22803 (+ (+ ?x5728 (- 13 ?x6336)) 24003)) 1 (ite (<= 25203 (+ (+ ?x5728 (- 13 ?x6336)) 24003)) (- 1) 0))))
(let ((?x4394 (select ?x400 13)))
(let ((?x4559 (ite (>= ?x6757 (+ ?x4394 ?x979)) 13 (ite (>= ?x6757 (+ ?x1745 ?x4799)) 12 ?x4533))))
(let ((?x4235 (ite (> 22803 (+ (+ ?x5728 (- 14 ?x6336)) 24003)) 1 (ite (<= 25203 (+ (+ ?x5728 (- 14 ?x6336)) 24003)) (- 1) 0))))
(let ((?x5043 (select ?x400 14)))
(let ((?x6762 (ite (> 22803 (+ (+ ?x5728 (- 15 ?x6336)) 24003)) 1 (ite (<= 25203 (+ (+ ?x5728 (- 15 ?x6336)) 24003)) (- 1) 0))))
(let ((?x2734 (select ?x400 15)))
(let ((?x4339 (ite (>= ?x6757 (+ ?x2734 ?x6762)) 15 (ite (>= ?x6757 (+ ?x5043 ?x4235)) 14 ?x4559))))
(let ((?x6636 (ite (> 22803 (+ (+ ?x5728 (- 16 ?x6336)) 24003)) 1 (ite (<= 25203 (+ (+ ?x5728 (- 16 ?x6336)) 24003)) (- 1) 0))))
(let ((?x4012 (select ?x400 16)))
(let ((?x6661 (ite (> 22803 (+ (+ ?x5728 (- 17 ?x6336)) 24003)) 1 (ite (<= 25203 (+ (+ ?x5728 (- 17 ?x6336)) 24003)) (- 1) 0))))
(let ((?x5684 (select ?x400 17)))
(let ((?x4606 (ite (>= ?x6757 (+ ?x5684 ?x6661)) 17 (ite (>= ?x6757 (+ ?x4012 ?x6636)) 16 ?x4339))))
(let ((?x4982 (ite (> 22803 (+ (+ ?x5728 (- 18 ?x6336)) 24003)) 1 (ite (<= 25203 (+ (+ ?x5728 (- 18 ?x6336)) 24003)) (- 1) 0))))
(let ((?x5398 (select ?x400 18)))
(let ((?x2838 (ite (> 22803 (+ (+ ?x5728 (- 19 ?x6336)) 24003)) 1 (ite (<= 25203 (+ (+ ?x5728 (- 19 ?x6336)) 24003)) (- 1) 0))))
(let ((?x5251 (select ?x400 19)))
(let ((?x6667 (ite (>= ?x6757 (+ ?x5251 ?x2838)) 19 (ite (>= ?x6757 (+ ?x5398 ?x4982)) 18 ?x4606))))
(let ((?x5155 (ite (> 22803 (+ (+ ?x5728 (- 20 ?x6336)) 24003)) 1 (ite (<= 25203 (+ (+ ?x5728 (- 20 ?x6336)) 24003)) (- 1) 0))))
(let ((?x5290 (select ?x400 20)))
(let ((?x6731 (ite (> 22803 (+ (+ ?x5728 (- 21 ?x6336)) 24003)) 1 (ite (<= 25203 (+ (+ ?x5728 (- 21 ?x6336)) 24003)) (- 1) 0))))
(let ((?x3833 (select ?x400 21)))
(let ((?x6156 (ite (>= ?x6757 (+ ?x3833 ?x6731)) 21 (ite (>= ?x6757 (+ ?x5290 ?x5155)) 20 ?x6667))))
(let ((?x6440 (ite (> 22803 (+ (+ ?x5728 (- 22 ?x6336)) 24003)) 1 (ite (<= 25203 (+ (+ ?x5728 (- 22 ?x6336)) 24003)) (- 1) 0))))
(let ((?x5580 (select ?x400 22)))
(let ((?x6901 (ite (> 22803 (+ (+ ?x5728 (- 23 ?x6336)) 24003)) 1 (ite (<= 25203 (+ (+ ?x5728 (- 23 ?x6336)) 24003)) (- 1) 0))))
(let ((?x2779 (select ?x400 23)))
(let ((?x6902 (ite (>= ?x6757 (+ ?x2779 ?x6901)) 23 (ite (>= ?x6757 (+ ?x5580 ?x6440)) 22 ?x6156))))
(let ((?x1467 (ite (> 22803 (+ (+ ?x5728 (- 24 ?x6336)) 24003)) 1 (ite (<= 25203 (+ (+ ?x5728 (- 24 ?x6336)) 24003)) (- 1) 0))))
(let ((?x5816 (select ?x400 24)))
(let ((?x759 (ite (> 22803 (+ (+ ?x5728 (- 25 ?x6336)) 24003)) 1 (ite (<= 25203 (+ (+ ?x5728 (- 25 ?x6336)) 24003)) (- 1) 0))))
(let ((?x4456 (select ?x400 25)))
(let ((?x2575 (ite (>= ?x6757 (+ ?x4456 ?x759)) 25 (ite (>= ?x6757 (+ ?x5816 ?x1467)) 24 ?x6902))))
(let ((?x5355 (ite (> 22803 (+ (+ ?x5728 (- 26 ?x6336)) 24003)) 1 (ite (<= 25203 (+ (+ ?x5728 (- 26 ?x6336)) 24003)) (- 1) 0))))
(let ((?x5402 (select ?x400 26)))
(let ((?x1951 (ite (> 22803 (+ (+ ?x5728 (- 27 ?x6336)) 24003)) 1 (ite (<= 25203 (+ (+ ?x5728 (- 27 ?x6336)) 24003)) (- 1) 0))))
(let ((?x5621 (select ?x400 27)))
(let ((?x1950 (ite (>= ?x6757 (+ ?x5621 ?x1951)) 27 (ite (>= ?x6757 (+ ?x5402 ?x5355)) 26 ?x2575))))
(let ((?x6893 (ite (> 22803 (+ (+ ?x5728 (- 28 ?x6336)) 24003)) 1 (ite (<= 25203 (+ (+ ?x5728 (- 28 ?x6336)) 24003)) (- 1) 0))))
(let ((?x1264 (select ?x400 28)))
(let ((?x5713 (ite (> 22803 (+ (+ ?x5728 (- 29 ?x6336)) 24003)) 1 (ite (<= 25203 (+ (+ ?x5728 (- 29 ?x6336)) 24003)) (- 1) 0))))
(let ((?x5262 (select ?x400 29)))
(let ((?x3412 (ite (>= ?x6757 (+ ?x5262 ?x5713)) 29 (ite (>= ?x6757 (+ ?x1264 ?x6893)) 28 ?x1950))))
(let ((?x5008 (ite (> 22803 (+ (+ ?x5728 (- 30 ?x6336)) 24003)) 1 (ite (<= 25203 (+ (+ ?x5728 (- 30 ?x6336)) 24003)) (- 1) 0))))
(let ((?x5755 (select ?x400 30)))
(let ((?x4440 (ite (> 22803 (+ (+ ?x5728 (- 31 ?x6336)) 24003)) 1 (ite (<= 25203 (+ (+ ?x5728 (- 31 ?x6336)) 24003)) (- 1) 0))))
(let ((?x1123 (select ?x400 31)))
(let ((?x4320 (ite (>= ?x6757 (+ ?x1123 ?x4440)) 31 (ite (>= ?x6757 (+ ?x5755 ?x5008)) 30 ?x3412))))
(let ((?x1340 (ite (> 22803 (+ (+ ?x5728 (- 32 ?x6336)) 24003)) 1 (ite (<= 25203 (+ (+ ?x5728 (- 32 ?x6336)) 24003)) (- 1) 0))))
(let ((?x5136 (select ?x400 32)))
(let ((?x5511 (ite (> 22803 (+ (+ ?x5728 (- 33 ?x6336)) 24003)) 1 (ite (<= 25203 (+ (+ ?x5728 (- 33 ?x6336)) 24003)) (- 1) 0))))
(let ((?x5283 (select ?x400 33)))
(let ((?x6152 (ite (>= ?x6757 (+ ?x5283 ?x5511)) 33 (ite (>= ?x6757 (+ ?x5136 ?x1340)) 32 ?x4320))))
(let ((?x6524 (ite (> 22803 (+ (+ ?x5728 (- 34 ?x6336)) 24003)) 1 (ite (<= 25203 (+ (+ ?x5728 (- 34 ?x6336)) 24003)) (- 1) 0))))
(let ((?x3496 (select ?x400 34)))
(let ((?x6376 (ite (> 22803 (+ (+ ?x5728 (- 35 ?x6336)) 24003)) 1 (ite (<= 25203 (+ (+ ?x5728 (- 35 ?x6336)) 24003)) (- 1) 0))))
(let ((?x4208 (select ?x400 35)))
(let ((?x4129 (ite (>= ?x6757 (+ ?x4208 ?x6376)) 35 (ite (>= ?x6757 (+ ?x3496 ?x6524)) 34 ?x6152))))
(let ((?x6996 (ite (> 22803 (+ (+ ?x5728 (- 36 ?x6336)) 24003)) 1 (ite (<= 25203 (+ (+ ?x5728 (- 36 ?x6336)) 24003)) (- 1) 0))))
(let ((?x3907 (select ?x400 36)))
(let ((?x6990 (ite (> 22803 (+ (+ ?x5728 (- 37 ?x6336)) 24003)) 1 (ite (<= 25203 (+ (+ ?x5728 (- 37 ?x6336)) 24003)) (- 1) 0))))
(let ((?x3107 (select ?x400 37)))
(let ((?x6451 (ite (>= ?x6757 (+ ?x3107 ?x6990)) 37 (ite (>= ?x6757 (+ ?x3907 ?x6996)) 36 ?x4129))))
(let ((?x3300 (ite (> 22803 (+ (+ ?x5728 (- 38 ?x6336)) 24003)) 1 (ite (<= 25203 (+ (+ ?x5728 (- 38 ?x6336)) 24003)) (- 1) 0))))
(let ((?x4400 (select ?x400 38)))
(let ((?x6928 (ite (> 22803 (+ (+ ?x5728 (- 39 ?x6336)) 24003)) 1 (ite (<= 25203 (+ (+ ?x5728 (- 39 ?x6336)) 24003)) (- 1) 0))))
(let ((?x4874 (select ?x400 39)))
(let ((?x3317 (ite (>= ?x6757 (+ ?x4874 ?x6928)) 39 (ite (>= ?x6757 (+ ?x4400 ?x3300)) 38 ?x6451))))
(let ((?x6794 (ite (> 22803 (+ (+ ?x5728 (- 40 ?x6336)) 24003)) 1 (ite (<= 25203 (+ (+ ?x5728 (- 40 ?x6336)) 24003)) (- 1) 0))))
(let ((?x5767 (select ?x400 40)))
(let ((?x3766 (ite (> 22803 (+ (+ ?x5728 (- 41 ?x6336)) 24003)) 1 (ite (<= 25203 (+ (+ ?x5728 (- 41 ?x6336)) 24003)) (- 1) 0))))
(let ((?x4844 (select ?x400 41)))
(let ((?x5870 (ite (>= ?x6757 (+ ?x4844 ?x3766)) 41 (ite (>= ?x6757 (+ ?x5767 ?x6794)) 40 ?x3317))))
(let ((?x6262 (ite (> 22803 (+ (+ ?x5728 (- 42 ?x6336)) 24003)) 1 (ite (<= 25203 (+ (+ ?x5728 (- 42 ?x6336)) 24003)) (- 1) 0))))
(let ((?x1658 (select ?x400 42)))
(let ((?x6230 (ite (> 22803 (+ (+ ?x5728 (- 43 ?x6336)) 24003)) 1 (ite (<= 25203 (+ (+ ?x5728 (- 43 ?x6336)) 24003)) (- 1) 0))))
(let ((?x3129 (select ?x400 43)))
(let ((?x3426 (ite (>= ?x6757 (+ ?x3129 ?x6230)) 43 (ite (>= ?x6757 (+ ?x1658 ?x6262)) 42 ?x5870))))
(let ((?x6149 (ite (> 22803 (+ (+ ?x5728 (- 44 ?x6336)) 24003)) 1 (ite (<= 25203 (+ (+ ?x5728 (- 44 ?x6336)) 24003)) (- 1) 0))))
(let ((?x4360 (select ?x400 44)))
(let ((?x5688 (ite (> 22803 (+ (+ ?x5728 (- 45 ?x6336)) 24003)) 1 (ite (<= 25203 (+ (+ ?x5728 (- 45 ?x6336)) 24003)) (- 1) 0))))
(let ((?x1454 (select ?x400 45)))
(let ((?x5530 (ite (>= ?x6757 (+ ?x1454 ?x5688)) 45 (ite (>= ?x6757 (+ ?x4360 ?x6149)) 44 ?x3426))))
(let ((?x5451 (ite (> 22803 (+ (+ ?x5728 (- 46 ?x6336)) 24003)) 1 (ite (<= 25203 (+ (+ ?x5728 (- 46 ?x6336)) 24003)) (- 1) 0))))
(let ((?x1808 (select ?x400 46)))
(let ((?x6114 (ite (> 22803 (+ (+ ?x5728 (- 47 ?x6336)) 24003)) 1 (ite (<= 25203 (+ (+ ?x5728 (- 47 ?x6336)) 24003)) (- 1) 0))))
(let ((?x5011 (select ?x400 47)))
(let ((?x4237 (ite (>= ?x6757 (+ ?x5011 ?x6114)) 47 (ite (>= ?x6757 (+ ?x1808 ?x5451)) 46 ?x5530))))
(let ((?x6120 (+ ?x5728 (- ?x4237 ?x6336))))
(let ((?x5685 (+ ?x6120 24003)))
(let ((?x6403 (+ (select ?x400 ?x4237) (ite (> 22803 ?x5685) 1 (ite (<= 25203 ?x5685) (- 1) 0)))))
(let ((?x5734 (- ?x6757 ?x6403)))
(let ((?x5038 (ite (or (= 22802 ?x5685) (= 25202 ?x5685)) 28 (select ?x306 ?x4237))))
(let ((?x5067 (+ x_months 1)))
(let ((?x2026 (mod ?x5067 48)))
(let ((?x2523 (ite (> 22803 (+ ?x5067 24003)) 1 (ite (<= 25203 (+ ?x5067 24003)) (- 1) 0))))
(let ((?x5244 (ite (or (= 22802 (+ ?x5067 24003)) (= 25202 (+ ?x5067 24003))) 28 (select ?x306 ?x2026))))
(let ((?x4929 (- ?x5244 1)))
(let ((?x2905 (+ (select ?x400 ?x2026) (ite $x4539 0 (ite (> x_beta ?x4929) ?x4929 x_beta)))))
(let ((?x5418 (+ (+ ?x2905 ?x2523) 0)))
(let ((?x5419 (+ ?x5067 (* (div ?x5418 1461) 48))))
(let ((?x5440 (+ (+ ?x5419 (- 1 ?x2026)) 24003)))
(let ((?x5423 (mod ?x5418 1461)))
(let (($x3611 (>= ?x5423 (+ ?x5068 (ite (> 22803 ?x5440) 1 (ite (<= 25203 ?x5440) (- 1) 0))))))
(let ((?x4310 (ite (> 22803 (+ (+ ?x5419 (- 2 ?x2026)) 24003)) 1 (ite (<= 25203 (+ (+ ?x5419 (- 2 ?x2026)) 24003)) (- 1) 0))))
(let ((?x3518 (ite (> 22803 (+ (+ ?x5419 (- 3 ?x2026)) 24003)) 1 (ite (<= 25203 (+ (+ ?x5419 (- 3 ?x2026)) 24003)) (- 1) 0))))
(let ((?x1452 (ite (>= ?x5423 (+ ?x4449 ?x3518)) 3 (ite (>= ?x5423 (+ ?x4364 ?x4310)) 2 (ite $x3611 1 0)))))
(let ((?x4922 (ite (> 22803 (+ (+ ?x5419 (- 4 ?x2026)) 24003)) 1 (ite (<= 25203 (+ (+ ?x5419 (- 4 ?x2026)) 24003)) (- 1) 0))))
(let ((?x5022 (ite (> 22803 (+ (+ ?x5419 (- 5 ?x2026)) 24003)) 1 (ite (<= 25203 (+ (+ ?x5419 (- 5 ?x2026)) 24003)) (- 1) 0))))
(let ((?x3615 (ite (>= ?x5423 (+ ?x2121 ?x5022)) 5 (ite (>= ?x5423 (+ ?x4404 ?x4922)) 4 ?x1452))))
(let ((?x5271 (ite (> 22803 (+ (+ ?x5419 (- 6 ?x2026)) 24003)) 1 (ite (<= 25203 (+ (+ ?x5419 (- 6 ?x2026)) 24003)) (- 1) 0))))
(let ((?x5681 (ite (> 22803 (+ (+ ?x5419 (- 7 ?x2026)) 24003)) 1 (ite (<= 25203 (+ (+ ?x5419 (- 7 ?x2026)) 24003)) (- 1) 0))))
(let ((?x5825 (ite (>= ?x5423 (+ ?x6017 ?x5681)) 7 (ite (>= ?x5423 (+ ?x4427 ?x5271)) 6 ?x3615))))
(let ((?x4905 (ite (> 22803 (+ (+ ?x5419 (- 8 ?x2026)) 24003)) 1 (ite (<= 25203 (+ (+ ?x5419 (- 8 ?x2026)) 24003)) (- 1) 0))))
(let ((?x4708 (ite (> 22803 (+ (+ ?x5419 (- 9 ?x2026)) 24003)) 1 (ite (<= 25203 (+ (+ ?x5419 (- 9 ?x2026)) 24003)) (- 1) 0))))
(let ((?x5117 (ite (>= ?x5423 (+ ?x5270 ?x4708)) 9 (ite (>= ?x5423 (+ ?x455 ?x4905)) 8 ?x5825))))
(let ((?x5382 (ite (> 22803 (+ (+ ?x5419 (- 10 ?x2026)) 24003)) 1 (ite (<= 25203 (+ (+ ?x5419 (- 10 ?x2026)) 24003)) (- 1) 0))))
(let ((?x5343 (ite (> 22803 (+ (+ ?x5419 (- 11 ?x2026)) 24003)) 1 (ite (<= 25203 (+ (+ ?x5419 (- 11 ?x2026)) 24003)) (- 1) 0))))
(let ((?x2349 (ite (>= ?x5423 (+ ?x5284 ?x5343)) 11 (ite (>= ?x5423 (+ ?x2850 ?x5382)) 10 ?x5117))))
(let ((?x5860 (ite (> 22803 (+ (+ ?x5419 (- 12 ?x2026)) 24003)) 1 (ite (<= 25203 (+ (+ ?x5419 (- 12 ?x2026)) 24003)) (- 1) 0))))
(let ((?x4351 (ite (> 22803 (+ (+ ?x5419 (- 13 ?x2026)) 24003)) 1 (ite (<= 25203 (+ (+ ?x5419 (- 13 ?x2026)) 24003)) (- 1) 0))))
(let ((?x4259 (ite (>= ?x5423 (+ ?x4394 ?x4351)) 13 (ite (>= ?x5423 (+ ?x1745 ?x5860)) 12 ?x2349))))
(let ((?x5476 (ite (> 22803 (+ (+ ?x5419 (- 14 ?x2026)) 24003)) 1 (ite (<= 25203 (+ (+ ?x5419 (- 14 ?x2026)) 24003)) (- 1) 0))))
(let ((?x4697 (ite (> 22803 (+ (+ ?x5419 (- 15 ?x2026)) 24003)) 1 (ite (<= 25203 (+ (+ ?x5419 (- 15 ?x2026)) 24003)) (- 1) 0))))
(let ((?x5447 (ite (>= ?x5423 (+ ?x2734 ?x4697)) 15 (ite (>= ?x5423 (+ ?x5043 ?x5476)) 14 ?x4259))))
(let ((?x4696 (ite (> 22803 (+ (+ ?x5419 (- 16 ?x2026)) 24003)) 1 (ite (<= 25203 (+ (+ ?x5419 (- 16 ?x2026)) 24003)) (- 1) 0))))
(let ((?x2526 (ite (> 22803 (+ (+ ?x5419 (- 17 ?x2026)) 24003)) 1 (ite (<= 25203 (+ (+ ?x5419 (- 17 ?x2026)) 24003)) (- 1) 0))))
(let ((?x5112 (ite (>= ?x5423 (+ ?x5684 ?x2526)) 17 (ite (>= ?x5423 (+ ?x4012 ?x4696)) 16 ?x5447))))
(let ((?x5486 (ite (> 22803 (+ (+ ?x5419 (- 18 ?x2026)) 24003)) 1 (ite (<= 25203 (+ (+ ?x5419 (- 18 ?x2026)) 24003)) (- 1) 0))))
(let ((?x3284 (ite (> 22803 (+ (+ ?x5419 (- 19 ?x2026)) 24003)) 1 (ite (<= 25203 (+ (+ ?x5419 (- 19 ?x2026)) 24003)) (- 1) 0))))
(let ((?x5914 (ite (>= ?x5423 (+ ?x5251 ?x3284)) 19 (ite (>= ?x5423 (+ ?x5398 ?x5486)) 18 ?x5112))))
(let ((?x4679 (ite (> 22803 (+ (+ ?x5419 (- 20 ?x2026)) 24003)) 1 (ite (<= 25203 (+ (+ ?x5419 (- 20 ?x2026)) 24003)) (- 1) 0))))
(let ((?x2348 (ite (> 22803 (+ (+ ?x5419 (- 21 ?x2026)) 24003)) 1 (ite (<= 25203 (+ (+ ?x5419 (- 21 ?x2026)) 24003)) (- 1) 0))))
(let ((?x4368 (ite (>= ?x5423 (+ ?x3833 ?x2348)) 21 (ite (>= ?x5423 (+ ?x5290 ?x4679)) 20 ?x5914))))
(let ((?x4823 (ite (> 22803 (+ (+ ?x5419 (- 22 ?x2026)) 24003)) 1 (ite (<= 25203 (+ (+ ?x5419 (- 22 ?x2026)) 24003)) (- 1) 0))))
(let ((?x5461 (ite (> 22803 (+ (+ ?x5419 (- 23 ?x2026)) 24003)) 1 (ite (<= 25203 (+ (+ ?x5419 (- 23 ?x2026)) 24003)) (- 1) 0))))
(let ((?x5092 (ite (>= ?x5423 (+ ?x2779 ?x5461)) 23 (ite (>= ?x5423 (+ ?x5580 ?x4823)) 22 ?x4368))))
(let ((?x5555 (ite (> 22803 (+ (+ ?x5419 (- 24 ?x2026)) 24003)) 1 (ite (<= 25203 (+ (+ ?x5419 (- 24 ?x2026)) 24003)) (- 1) 0))))
(let ((?x4167 (ite (> 22803 (+ (+ ?x5419 (- 25 ?x2026)) 24003)) 1 (ite (<= 25203 (+ (+ ?x5419 (- 25 ?x2026)) 24003)) (- 1) 0))))
(let ((?x5499 (ite (>= ?x5423 (+ ?x4456 ?x4167)) 25 (ite (>= ?x5423 (+ ?x5816 ?x5555)) 24 ?x5092))))
(let ((?x4677 (ite (> 22803 (+ (+ ?x5419 (- 26 ?x2026)) 24003)) 1 (ite (<= 25203 (+ (+ ?x5419 (- 26 ?x2026)) 24003)) (- 1) 0))))
(let ((?x2130 (ite (> 22803 (+ (+ ?x5419 (- 27 ?x2026)) 24003)) 1 (ite (<= 25203 (+ (+ ?x5419 (- 27 ?x2026)) 24003)) (- 1) 0))))
(let ((?x5904 (ite (>= ?x5423 (+ ?x5621 ?x2130)) 27 (ite (>= ?x5423 (+ ?x5402 ?x4677)) 26 ?x5499))))
(let ((?x4573 (ite (> 22803 (+ (+ ?x5419 (- 28 ?x2026)) 24003)) 1 (ite (<= 25203 (+ (+ ?x5419 (- 28 ?x2026)) 24003)) (- 1) 0))))
(let ((?x5082 (ite (> 22803 (+ (+ ?x5419 (- 29 ?x2026)) 24003)) 1 (ite (<= 25203 (+ (+ ?x5419 (- 29 ?x2026)) 24003)) (- 1) 0))))
(let ((?x625 (ite (>= ?x5423 (+ ?x5262 ?x5082)) 29 (ite (>= ?x5423 (+ ?x1264 ?x4573)) 28 ?x5904))))
(let ((?x4639 (ite (> 22803 (+ (+ ?x5419 (- 30 ?x2026)) 24003)) 1 (ite (<= 25203 (+ (+ ?x5419 (- 30 ?x2026)) 24003)) (- 1) 0))))
(let ((?x4719 (ite (> 22803 (+ (+ ?x5419 (- 31 ?x2026)) 24003)) 1 (ite (<= 25203 (+ (+ ?x5419 (- 31 ?x2026)) 24003)) (- 1) 0))))
(let ((?x5190 (ite (>= ?x5423 (+ ?x1123 ?x4719)) 31 (ite (>= ?x5423 (+ ?x5755 ?x4639)) 30 ?x625))))
(let ((?x5510 (ite (> 22803 (+ (+ ?x5419 (- 32 ?x2026)) 24003)) 1 (ite (<= 25203 (+ (+ ?x5419 (- 32 ?x2026)) 24003)) (- 1) 0))))
(let ((?x4412 (ite (> 22803 (+ (+ ?x5419 (- 33 ?x2026)) 24003)) 1 (ite (<= 25203 (+ (+ ?x5419 (- 33 ?x2026)) 24003)) (- 1) 0))))
(let ((?x5437 (ite (>= ?x5423 (+ ?x5283 ?x4412)) 33 (ite (>= ?x5423 (+ ?x5136 ?x5510)) 32 ?x5190))))
(let ((?x5186 (ite (> 22803 (+ (+ ?x5419 (- 34 ?x2026)) 24003)) 1 (ite (<= 25203 (+ (+ ?x5419 (- 34 ?x2026)) 24003)) (- 1) 0))))
(let ((?x5302 (ite (> 22803 (+ (+ ?x5419 (- 35 ?x2026)) 24003)) 1 (ite (<= 25203 (+ (+ ?x5419 (- 35 ?x2026)) 24003)) (- 1) 0))))
(let ((?x5289 (ite (>= ?x5423 (+ ?x4208 ?x5302)) 35 (ite (>= ?x5423 (+ ?x3496 ?x5186)) 34 ?x5437))))
(let ((?x5732 (ite (> 22803 (+ (+ ?x5419 (- 36 ?x2026)) 24003)) 1 (ite (<= 25203 (+ (+ ?x5419 (- 36 ?x2026)) 24003)) (- 1) 0))))
(let ((?x4865 (ite (> 22803 (+ (+ ?x5419 (- 37 ?x2026)) 24003)) 1 (ite (<= 25203 (+ (+ ?x5419 (- 37 ?x2026)) 24003)) (- 1) 0))))
(let ((?x6612 (ite (>= ?x5423 (+ ?x3107 ?x4865)) 37 (ite (>= ?x5423 (+ ?x3907 ?x5732)) 36 ?x5289))))
(let ((?x5650 (ite (> 22803 (+ (+ ?x5419 (- 38 ?x2026)) 24003)) 1 (ite (<= 25203 (+ (+ ?x5419 (- 38 ?x2026)) 24003)) (- 1) 0))))
(let ((?x5669 (ite (> 22803 (+ (+ ?x5419 (- 39 ?x2026)) 24003)) 1 (ite (<= 25203 (+ (+ ?x5419 (- 39 ?x2026)) 24003)) (- 1) 0))))
(let ((?x5264 (ite (>= ?x5423 (+ ?x4874 ?x5669)) 39 (ite (>= ?x5423 (+ ?x4400 ?x5650)) 38 ?x6612))))
(let ((?x5307 (ite (> 22803 (+ (+ ?x5419 (- 40 ?x2026)) 24003)) 1 (ite (<= 25203 (+ (+ ?x5419 (- 40 ?x2026)) 24003)) (- 1) 0))))
(let ((?x5466 (ite (> 22803 (+ (+ ?x5419 (- 41 ?x2026)) 24003)) 1 (ite (<= 25203 (+ (+ ?x5419 (- 41 ?x2026)) 24003)) (- 1) 0))))
(let ((?x5849 (ite (>= ?x5423 (+ ?x4844 ?x5466)) 41 (ite (>= ?x5423 (+ ?x5767 ?x5307)) 40 ?x5264))))
(let ((?x5521 (ite (> 22803 (+ (+ ?x5419 (- 42 ?x2026)) 24003)) 1 (ite (<= 25203 (+ (+ ?x5419 (- 42 ?x2026)) 24003)) (- 1) 0))))
(let ((?x4947 (ite (> 22803 (+ (+ ?x5419 (- 43 ?x2026)) 24003)) 1 (ite (<= 25203 (+ (+ ?x5419 (- 43 ?x2026)) 24003)) (- 1) 0))))
(let ((?x5556 (ite (>= ?x5423 (+ ?x3129 ?x4947)) 43 (ite (>= ?x5423 (+ ?x1658 ?x5521)) 42 ?x5849))))
(let ((?x4345 (ite (> 22803 (+ (+ ?x5419 (- 44 ?x2026)) 24003)) 1 (ite (<= 25203 (+ (+ ?x5419 (- 44 ?x2026)) 24003)) (- 1) 0))))
(let ((?x5269 (ite (> 22803 (+ (+ ?x5419 (- 45 ?x2026)) 24003)) 1 (ite (<= 25203 (+ (+ ?x5419 (- 45 ?x2026)) 24003)) (- 1) 0))))
(let ((?x4764 (ite (>= ?x5423 (+ ?x1454 ?x5269)) 45 (ite (>= ?x5423 (+ ?x4360 ?x4345)) 44 ?x5556))))
(let ((?x5201 (ite (> 22803 (+ (+ ?x5419 (- 46 ?x2026)) 24003)) 1 (ite (<= 25203 (+ (+ ?x5419 (- 46 ?x2026)) 24003)) (- 1) 0))))
(let ((?x7002 (ite (> 22803 (+ (+ ?x5419 (- 47 ?x2026)) 24003)) 1 (ite (<= 25203 (+ (+ ?x5419 (- 47 ?x2026)) 24003)) (- 1) 0))))
(let ((?x3177 (ite (>= ?x5423 (+ ?x5011 ?x7002)) 47 (ite (>= ?x5423 (+ ?x1808 ?x5201)) 46 ?x4764))))
(let ((?x7001 (+ ?x5419 (- ?x3177 ?x2026))))
(let ((?x2069 (+ ?x7001 24003)))
(let ((?x6912 (+ (select ?x400 ?x3177) (ite (> 22803 ?x2069) 1 (ite (<= 25203 ?x2069) (- 1) 0)))))
(let ((?x6610 (- ?x5423 ?x6912)))
(let ((?x1382 (ite (or (= 22802 ?x2069) (= 25202 ?x2069)) 28 (select ?x306 ?x3177))))
(let (($x5525 (= (ite (= 1 (ite (>= ?x6610 ?x1382) 1 0)) (- ?x6610 ?x1382) ?x6610) (ite (= 1 (ite (>= ?x5734 ?x5038) 1 0)) (- ?x5734 ?x5038) ?x5734))))
(let (($x4572 (= (+ ?x7001 (ite (>= ?x6610 ?x1382) 1 0)) (+ ?x6120 (ite (>= ?x5734 ?x5038) 1 0)))))
(not (and $x4572 $x5525))))))))))))))))))))))))))))))))))))))))))))))))))))))))))))))))))))))))))))))))))))))))))))))))))))))))))))))))))))))))))))))))))))))))))))))))))))))))))))))))))))))))))))))))))))))))))))))))))))))))))))))))))))))))))))))))))))))))))))))))))))))))))))))))))))))))))))))))))))))))))))
(check-sat)
